NAME : STSP_200-1over3.1295.tour
COMMENT : Length = 1295
COMMENT : Found by LKH-3 [Keld Helsgaun]
TYPE : TOUR
DIMENSION : 66
TOUR_SECTION
50
197
200
48
127
191
127
78
91
157
91
78
142
88
115
120
170
36
8
36
167
26
167
103
196
74
192
160
24
55
106
41
77
64
80
18
182
18
65
159
178
158
56
140
133
131
57
173
96
119
117
135
33
100
35
105
126
43
121
39
49
30
52
42
6
134
6
60
34
107
164
45
146
111
129
137
198
9
144
141
17
122
114
28
72
28
4
28
114
163
98
75
21
199
147
186
189
186
51
190
108
104
99
73
181
116
110
174
110
102
125
168
38
86
38
89
69
123
194
166
162
93
61
1
61
101
71
143
68
143
71
188
184
90
136
155
149
-1
EOF
